\ This file has been generated by DOcplex
\ ENCODING=ISO-8859-1
\Problem name: Qrandom21842_6.lp

Minimize
 obj: - 9076 x0 - 4538 x1 - 2269 x2 - 9076 x3 - 4538 x4 - 2269 x5 + [ 5280 x0^2
      + 5280 x0*x1 + 2640 x0*x2 + 10368 x0*x3 + 5184 x0*x4 + 2592 x0*x5
      + 1320 x1^2 + 1320 x1*x2 + 5184 x1*x3 + 2592 x1*x4 + 1296 x1*x5 + 330 x2^2
      + 2592 x2*x3 + 1296 x2*x4 + 648 x2*x5 + 5184 x3^2 + 5184 x3*x4
      + 2592 x3*x5 + 1296 x4^2 + 1296 x4*x5 + 324 x5^2 ]/2 + 7938
Subject To

Bounds
 0 <= x0 <= 1
 0 <= x1 <= 1
 0 <= x2 <= 1
 0 <= x3 <= 1
 0 <= x4 <= 1
 0 <= x5 <= 1

Binaries
 x0 x1 x2 x3 x4 x5
End
